149
1000
226
482
298
49
487
410
123
74
415
54
66
203
168
32
189
351
112
118
100
79
83
174
480
61
360
72
476
1
200
470
32
258
123
119
17
57
261
165
179
291
65
483
170
108
2
141
134
61
216
1
232
202
168
24
95
174
231
52
57
492
1
228
227
8
175
192
288
222
42
54
362
4
97
267
17
163
276
320
459
235
18
145
42
181
65
183
210
353
408
270
55
140
184
317
19
443
307
105
86
9
448
25
251
67
316
390
293
442
371
85
260
289
55
129
457
344
261
70
247
135
90
115
493
54
149
354
285
392
44
71
455
210
86
26
380
15
103
90
424
165
180
329
448
96
327
428
428
243
385
